SDVRP instances/custom_instances/p01_22_splitx10_0.vrp
NAME:p01_22_splitx10_
BEST_KNOWN: 0
COMMENT: 0
DIMENSION: 229
CAPACITY: 1600
EDGE_WEIGHT_FORMAT: FUNCTION
EDGE_WEIGHT_TYPE: EXACT_2D
NODE_COORD_SECTION
1 0.00000 0.00000
2 34 -34
3 34 -34
4 34 -34
5 34 -34
6 34 -34
7 -40 -30
8 -40 -30
9 -40 -30
10 -40 -30
11 -40 -30
12 -40 -30
13 -30 39
14 -30 39
15 -30 39
16 -30 39
17 -30 39
18 46 -8
19 46 -8
20 46 -8
21 46 -8
22 46 -8
23 46 -8
24 46 -8
25 43 50
26 43 50
27 43 50
28 43 50
29 43 50
30 43 50
31 43 50
32 -16 -28
33 -16 -28
34 -16 -28
35 -16 -28
36 -16 -28
37 -42 -34
38 -42 -34
39 -42 -34
40 -42 -34
41 -42 -34
42 -42 -34
43 18 1
44 18 1
45 18 1
46 18 1
47 18 1
48 18 1
49 -50 -4
50 -50 -4
51 -50 -4
52 31 42
53 31 42
54 31 42
55 31 42
56 -24 30
57 -24 30
58 -24 30
59 -24 30
60 -24 30
61 37 33
62 37 33
63 37 33
64 37 33
65 -4 18
66 -4 18
67 -4 18
68 -4 18
69 -4 18
70 -4 18
71 14 -3
72 14 -3
73 14 -3
74 14 -3
75 14 -3
76 14 -3
77 -14 35
78 -14 35
79 -14 35
80 9 40
81 9 40
82 9 40
83 9 40
84 9 40
85 9 40
86 9 40
87 -14 36
88 -14 36
89 -7 -48
90 -7 -48
91 -7 -48
92 -7 -48
93 -28 -36
94 -28 -36
95 -28 -36
96 -28 -36
97 -28 -36
98 -28 -36
99 35 -3
100 35 -3
101 35 -3
102 35 -3
103 35 -3
104 35 -3
105 -6 -12
106 -6 -12
107 -6 -12
108 -6 -12
109 -6 -12
110 -6 -12
111 47 34
112 47 34
113 47 34
114 47 34
115 47 34
116 47 34
117 47 -2
118 47 -2
119 47 -2
120 47 -2
121 -44 29
122 -44 29
123 -44 29
124 -44 29
125 12 -45
126 12 -45
127 12 -45
128 25 6
129 -48 -43
130 -48 -43
131 -48 -43
132 -48 -43
133 47 -18
134 47 -18
135 6 -37
136 21 37
137 21 37
138 -13 -6
139 5 28
140 5 28
141 5 28
142 5 28
143 -5 -47
144 -5 -47
145 -5 -47
146 -5 -47
147 -13 20
148 -13 20
149 -13 20
150 38 -33
151 38 -33
152 17 38
153 17 38
154 17 38
155 17 38
156 27 4
157 27 4
158 27 4
159 27 4
160 20 34
161 20 34
162 20 34
163 20 34
164 20 34
165 20 34
166 20 34
167 -32 15
168 -32 15
169 -32 15
170 -32 15
171 -32 15
172 -3 33
173 -3 33
174 -3 33
175 -3 33
176 39 -4
177 39 -4
178 39 -4
179 39 -4
180 39 -4
181 -16 5
182 -16 5
183 -16 5
184 13 -16
185 13 -16
186 13 -16
187 13 -16
188 13 -16
189 13 -16
190 13 -16
191 36 41
192 36 41
193 36 41
194 36 41
195 36 41
196 -1 -33
197 -1 -33
198 -1 -33
199 -1 -33
200 -1 -33
201 -1 -33
202 1 -11
203 1 -11
204 1 -11
205 1 -11
206 1 -11
207 -1 13
208 -1 13
209 -1 13
210 -1 13
211 -1 13
212 -1 13
213 -1 13
214 -33 41
215 -33 41
216 -33 41
217 -33 41
218 -33 41
219 -33 41
220 -49 -49
221 -49 -49
222 -49 -49
223 -49 -49
224 -49 -49
225 -49 -49
226 -49 -49
227 33 -32
228 33 -32
229 33 -32
DEMAND_SECTION
1 0
2 320
3 16
4 16
5 16
6 12
7 160
8 80
9 16
10 16
11 16
12 2
13 320
14 160
15 80
16 16
17 14
18 160
19 80
20 16
21 16
22 16
23 16
24 6
25 320
26 320
27 16
28 16
29 16
30 16
31 6
32 320
33 16
34 16
35 16
36 2
37 320
38 320
39 80
40 16
41 16
42 8
43 320
44 320
45 16
46 16
47 16
48 12
49 320
50 160
51 80
52 320
53 80
54 16
55 4
56 320
57 160
58 80
59 16
60 14
61 320
62 160
63 80
64 10
65 320
66 160
67 16
68 16
69 16
70 2
71 320
72 320
73 16
74 16
75 16
76 2
77 320
78 16
79 14
80 320
81 160
82 80
83 16
84 16
85 16
86 2
87 320
88 80
89 320
90 320
91 16
92 4
93 320
94 320
95 16
96 16
97 16
98 2
99 160
100 80
101 16
102 16
103 16
104 2
105 320
106 320
107 16
108 16
109 16
110 2
111 160
112 16
113 16
114 16
115 16
116 6
117 160
118 16
119 16
120 8
121 320
122 160
123 16
124 4
125 320
126 160
127 10
128 320
129 320
130 320
131 16
132 4
133 320
134 80
135 320
136 160
137 80
138 320
139 320
140 320
141 16
142 4
143 320
144 320
145 80
146 10
147 320
148 320
149 160
150 320
151 80
152 320
153 160
154 16
155 14
156 320
157 16
158 16
159 8
160 320
161 320
162 16
163 16
164 16
165 16
166 6
167 160
168 80
169 16
170 16
171 8
172 320
173 160
174 16
175 4
176 320
177 160
178 80
179 16
180 4
181 320
182 320
183 10
184 320
185 160
186 16
187 16
188 16
189 16
190 6
191 160
192 16
193 16
194 16
195 2
196 160
197 80
198 16
199 16
200 16
201 12
202 160
203 80
204 16
205 16
206 8
207 320
208 80
209 16
210 16
211 16
212 16
213 6
214 320
215 320
216 16
217 16
218 16
219 2
220 320
221 320
222 16
223 16
224 16
225 16
226 6
227 320
228 16
229 4
DEPOT_SECTION
1
-1
EOF