SDVRP instances/custom_instances/p01_22_splitx10_0.sol
228 -6 8 10 9 39 128 130 131 129 223 222 224 225 221 219 220 -11 7 37 36 38 41 40 96 97 95 94 92 93 34 33 106 108 109 107 -35 32 31 196 199 198 134 125 126 124 201 204 205 203 202 -47 45 43 42 44 46 73 72 75 74 71 70 -48 49 50 121 120 123 122 169 167 170 168 166 182 -53 54 51 52 193 192 191 194 190 28 26 27 25 29 24 30 110 114 111 113 112 115 -56 218 216 214 213 217 215 16 14 12 13 15 148 -61 60 62 63 136 135 164 163 165 160 159 161 162 -69 67 66 64 65 68 59 57 58 55 147 146 -76 78 77 86 87 174 171 172 173 138 140 -89 88 90 91 142 145 144 143 195 197 200 -101 102 100 99 98 103 155 156 158 157 127 206 208 210 212 207 209 211 -105 104 137 180 181 -139 141 79 85 82 84 81 83 80 151 152 153 154 -149 150 3 4 1 2 5 226 227 228 184 183 -179 176 175 177 178 118 116 119 117 18 21 20 22 19 23 17 132 133 189 185 187 188 186 0 





OBJ=
1620.404
BEST_KNOWN=
0.000